50
9193

738 95
198 773
538 841
200 984
72 29
900 792
3 323
285 560
553 350
111 631
551 672
228 731
431 410
623 437
650 515
186 192
213 121
405 876
57 4
708 745
543 253
982 254
228 380
530 358
126 915
482 89
82 434
120 904
325 638
113 362
144 389
107 972
47 810
975 188
694 385
848 504
97 266
273 590
710 794
697 85
376 590
590 372
463 615
107 192
359 902
586 316
718 81
209 926
932 870
113 646
